# Solution for model subproblem_model
# Objective value = 1.1025000000000597e+04
_eta 1.1025000000000597e+04
_z[32] 0
_z[70] 0
_z[5] 0
_z[85] 0
_z[71] 0
_z[92] 1
_z[38] 1
_z[21] 0
_z[41] 0
_z[56] 1
_z[80] 0
_z[62] 0
_z[20] 0
_z[10] 0
_z[55] 1
_z[36] 0
_z[44] 0
_z[48] 0
_z[8] 1
_z[15] 0
_z[61] 0
_z[78] 0
_z[34] 1
_z[100] 0
_z[90] 0
_z[64] 0
_z[79] 0
_z[1] 0
_z[22] 0
_z[31] 0
_z[54] 1
_z[82] 0
_z[11] 1
_z[75] 0
_z[50] 0
_z[19] 0
_z[99] 0
_z[72] 0
_z[47] 1
_z[49] 0
_z[77] 0
_z[95] 0
_z[98] 1
_z[53] 0
_z[65] 1
_z[63] 0
_z[14] 0
_z[23] 1
_z[93] 0
_z[28] 0
_z[2] 0
_z[81] 0
_z[45] 0
_z[88] 1
_z[89] 0
_z[25] 0
_z[91] 0
_z[43] 0
_z[76] 1
_z[42] 1
_z[7] 0
_z[17] 0
_z[37] 0
_z[26] 0
_z[9] 0
_z[60] 0
_z[16] 0
_z[83] 0
_z[13] 0
_z[67] 1
_z[59] 0
_z[58] 0
_z[4] 0
_z[68] 0
_z[87] 0
_z[40] 0
_z[30] 0
_z[27] 0
_z[73] 0
_z[84] 0
_z[35] 0
_z[46] 0
_z[39] 0
_z[51] 0
_z[52] 0
_z[6] 0
_z[96] 0
_z[74] 1
_z[86] 0
_z[29] 0
_z[18] 0
_z[24] 0
_z[94] 0
_z[33] 0
_z[12] 0
_z[57] 0
_z[97] 0
_z[69] 0
_z[3] 0
_z[66] 0
